============================[ Problem Statistics ]=============================|                                                                             ||  Number of variables:          4242                                         ||  Number of clauses:           10092                                         ||  Parse time:                   0.50 s                                       ||                                                                             |============================[ Search Statistics ]==============================| Conflicts |          ORIGINAL         |          LEARNT          | Progress ||           |    Vars  Clauses Literals |    Limit  Clauses Lit/Cl |          |===============================================================================|       100 |    1591     6297   765928 |     2308      100     53 | 62.501 % ||       250 |    1591     6297   765928 |     2539      250     75 | 62.495 % |===============================================================================restarts              : 3conflicts             : 270            (362 /sec)decisions             : 536            (0.00 % random) (718 /sec)propagations          : 11794          (15810 /sec)conflict literals     : 20794          (94.83 % deleted)CPU time              : 0.746 sSATISFIABLE